proyfinal/src/viki/013/andrea/andrea-localstore/experimentInOfficeAgust.take6/worker_4/b3cdb939-2568-423a-9e59-a04735444fb4.als.cnf.out
Reading from standard input... Use '--help' for help.
============================[ Problem Statistics ]=============================
|                                                                             |
|  Number of variables:         87638                                         |
|  Number of clauses:          161767                                         |
|  Parse time:                   0.04 s                                       |
|                                                                             |
============================[ Search Statistics ]==============================
| Conflicts |          ORIGINAL         |          LEARNT          | Progress |
|           |    Vars  Clauses Literals |    Limit  Clauses Lit/Cl |          |
===============================================================================
|       100 |   62238   104650   261531 |    38371      100     40 | 28.983 % |
|       250 |   62238   104650   261531 |    42208      250     97 | 28.983 % |
|       475 |   62238   104650   261531 |    46429      475    103 | 28.983 % |
|       812 |   62238   104650   261531 |    51072      812     77 | 28.983 % |
|      1318 |   62238   104650   261531 |    56179     1318     78 | 28.983 % |
|      2077 |   62234   104634   261487 |    61797     2048     80 | 28.987 % |
|      3216 |   62234   104634   261487 |    67977     3187     76 | 28.987 % |
===============================================================================
restarts              : 18
conflicts             : 3533           (7536 /sec)
decisions             : 11794          (0.00 % random) (25158 /sec)
propagations          : 5158846        (11004576 /sec)
conflict literals     : 263147         (57.30 % deleted)
Memory used           : 21.19 MB
CPU time              : 0.468791 s

UNSATISFIABLE
